(set-info :smt-lib-version 2.6)
(set-logic UF)
(set-info :source |Benchmarks from the paper: "Extending Sledgehammer with SMT Solvers" by Jasmin Blanchette, Sascha Bohme, and Lawrence C. Paulson, CADE 2011.  Translated to SMT2 by Andrew Reynolds and Morgan Deters.|)
(set-info :category "industrial")
(set-info :status unknown)
(declare-sort S1 0)
(declare-sort S2 0)
(declare-sort S3 0)
(declare-sort S4 0)
(declare-sort S5 0)
(declare-sort S6 0)
(declare-sort S7 0)
(declare-sort S8 0)
(declare-sort S9 0)
(declare-sort S10 0)
(declare-sort S11 0)
(declare-sort S12 0)
(declare-sort S13 0)
(declare-sort S14 0)
(declare-sort S15 0)
(declare-sort S16 0)
(declare-sort S17 0)
(declare-sort S18 0)
(declare-sort S19 0)
(declare-fun f1 () S1)
(declare-fun f2 () S1)
(declare-fun f3 (S2 S4) S3)
(declare-fun f4 (S5 S3) S2)
(declare-fun f5 (S6 S2) S5)
(declare-fun f6 () S6)
(declare-fun f7 (S7 S3) S3)
(declare-fun f8 (S8 S3) S7)
(declare-fun f9 () S8)
(declare-fun f10 () S8)
(declare-fun f11 () S5)
(declare-fun f12 () S3)
(declare-fun f13 () S2)
(declare-fun f14 () S4)
(declare-fun f15 () S4)
(declare-fun f16 (S9 S4) S1)
(declare-fun f17 (S4) S9)
(declare-fun f18 (S10 S4) S11)
(declare-fun f19 (S12 S11) S10)
(declare-fun f20 () S12)
(declare-fun f21 () S11)
(declare-fun f22 (S13 S4) S4)
(declare-fun f23 (S14 S4) S13)
(declare-fun f24 () S14)
(declare-fun f25 () S4)
(declare-fun f26 (S15 S11) S11)
(declare-fun f27 (S16 S11) S15)
(declare-fun f28 () S16)
(declare-fun f29 () S4)
(declare-fun f30 (S17 S9) S3)
(declare-fun f31 (S18 S2) S17)
(declare-fun f32 () S18)
(declare-fun f33 (S19 S4) S9)
(declare-fun f34 (S4) S19)
(declare-fun f35 (S11 S11) S1)
(declare-fun f36 () S11)
(declare-fun f37 () S3)
(declare-fun f38 (S4 S9) S1)
(declare-fun f39 () S14)
(assert (not (= f1 f2)))
(assert (forall ((?v0 S2) (?v1 S3) (?v2 S4)) (= (f3 (f4 (f5 f6 ?v0) ?v1) ?v2) (f7 (f8 f9 (f3 ?v0 ?v2)) ?v1))))
(assert (let ((?v_1 (f4 f11 (f7 (f8 f9 f12) (f3 f13 f14))))) (let ((?v_0 (f3 ?v_1 f15))) (let ((?v_2 (f7 (f8 f10 ?v_0) f12))) (not (= (f7 (f8 f9 (f7 (f8 f10 (f3 (f4 f11 ?v_0) f14)) f12)) ?v_2) (f7 (f8 f9 (f7 (f8 f10 (f3 (f4 f11 (f3 ?v_1 f14)) f15)) f12)) ?v_2)))))))
(assert (= (f16 (f17 f15) f14) f1))
(assert (forall ((?v0 S4)) (= (f3 (f4 f11 (f3 f13 ?v0)) ?v0) f12)))
(assert (forall ((?v0 S3) (?v1 S4)) (let ((?v_0 (f8 f9 f12))) (= (f7 ?v_0 (f3 (f4 f11 ?v0) ?v1)) (f3 (f4 f11 (f7 ?v_0 ?v0)) ?v1)))))
(assert (forall ((?v0 S3) (?v1 S3) (?v2 S4)) (= (f3 (f4 f11 (f7 (f8 f9 ?v0) ?v1)) ?v2) (f7 (f8 f9 (f3 (f4 f11 ?v0) ?v2)) (f3 (f4 f11 ?v1) ?v2)))))
(assert (forall ((?v0 S3) (?v1 S3) (?v2 S3)) (= (f7 (f8 f9 (f7 (f8 f10 ?v0) ?v1)) ?v2) (f7 (f8 f10 (f7 (f8 f9 ?v0) ?v2)) (f7 (f8 f9 ?v1) ?v2)))))
(assert (forall ((?v0 S3) (?v1 S3) (?v2 S3)) (= (f7 (f8 f9 (f7 (f8 f10 ?v0) ?v1)) ?v2) (f7 (f8 f10 (f7 (f8 f9 ?v0) ?v2)) (f7 (f8 f9 ?v1) ?v2)))))
(assert (forall ((?v0 S3)) (= (f7 (f8 f9 ?v0) f12) ?v0)))
(assert (forall ((?v0 S4)) (= (f3 (f4 f11 f12) ?v0) f12)))
(assert (forall ((?v0 S4)) (= (f18 (f19 f20 f21) ?v0) f21)))
(assert (forall ((?v0 S4)) (= (f22 (f23 f24 f25) ?v0) f25)))
(assert (forall ((?v0 S11) (?v1 S11) (?v2 S11) (?v3 S11)) (=> (= (f26 (f27 f28 ?v0) ?v1) (f26 (f27 f28 ?v2) ?v3)) (= (= ?v0 ?v1) (= ?v2 ?v3)))))
(assert (forall ((?v0 S3) (?v1 S3) (?v2 S3) (?v3 S3)) (=> (= (f7 (f8 f10 ?v0) ?v1) (f7 (f8 f10 ?v2) ?v3)) (= (= ?v0 ?v1) (= ?v2 ?v3)))))
(assert (forall ((?v0 S3)) (= (= f12 ?v0) (= ?v0 f12))))
(assert (forall ((?v0 S11)) (= (= f21 ?v0) (= ?v0 f21))))
(assert (forall ((?v0 S4)) (= (= f25 ?v0) (= ?v0 f25))))
(assert (= (f16 (f17 f29) f15) f1))
(assert (let ((?v_1 (f3 (f4 f11 (f7 (f8 f9 f12) (f3 f13 f14))) f15))) (let ((?v_0 (f4 f11 ?v_1))) (= (f30 (f31 f32 ?v_0) (f33 (f34 f29) f14)) (f7 (f8 f9 (f7 (f8 f10 (f3 ?v_0 f14)) f12)) (f7 (f8 f10 ?v_1) f12))))))
(assert (not (= (f35 f21 f36) f1)))
(assert (not (= (f16 (f17 f25) f29) f1)))
(assert (= (f35 f36 f21) f1))
(assert (= (f16 (f17 f29) f25) f1))
(assert (forall ((?v0 S11)) (= (= f36 ?v0) (= ?v0 f36))))
(assert (forall ((?v0 S4)) (= (= f29 ?v0) (= ?v0 f29))))
(assert (forall ((?v0 S3)) (= (= f37 ?v0) (= ?v0 f37))))
(assert (forall ((?v0 S4) (?v1 S4)) (let ((?v_0 (f17 f29))) (= (= (f16 ?v_0 (f22 (f23 f24 ?v0) ?v1)) f1) (or (= (f16 ?v_0 ?v0) f1) (= ?v1 f29))))))
(assert (forall ((?v0 S11) (?v1 S11)) (= (= (f35 ?v0 ?v1) f1) (= (f35 (f26 (f27 f28 ?v0) ?v1) f36) f1))))
(assert (forall ((?v0 S11) (?v1 S4)) (= (= (f18 (f19 f20 ?v0) ?v1) f36) (and (= ?v0 f36) (not (= ?v1 f29))))))
(assert (forall ((?v0 S4) (?v1 S4)) (= (= (f22 (f23 f24 ?v0) ?v1) f29) (and (= ?v0 f29) (not (= ?v1 f29))))))
(assert (forall ((?v0 S3) (?v1 S4)) (= (= (f3 (f4 f11 ?v0) ?v1) f37) (and (= ?v0 f37) (not (= ?v1 f29))))))
(assert (forall ((?v0 S2) (?v1 S9) (?v2 S3)) (= (f7 (f8 f9 (f30 (f31 f32 ?v0) ?v1)) ?v2) (f30 (f31 f32 (f4 (f5 f6 ?v0) ?v2)) ?v1))))
(assert (forall ((?v0 S11) (?v1 S11)) (=> (not (= ?v0 ?v1)) (=> (=> (= (f35 ?v0 ?v1) f1) false) (=> (=> (= (f35 ?v1 ?v0) f1) false) false)))))
(assert (forall ((?v0 S11) (?v1 S4)) (=> (= (f35 f36 ?v0) f1) (= (f35 f36 (f18 (f19 f20 ?v0) ?v1)) f1))))
(assert (forall ((?v0 S4) (?v1 S4)) (let ((?v_0 (f17 f29))) (=> (= (f16 ?v_0 ?v0) f1) (= (f16 ?v_0 (f22 (f23 f24 ?v0) ?v1)) f1)))))
(assert (forall ((?v0 S4) (?v1 S4) (?v2 S4)) (let ((?v_0 (f23 f24 ?v0))) (=> (= (f16 (f17 f29) ?v0) f1) (=> (= (f16 (f17 (f22 ?v_0 ?v1)) (f22 ?v_0 ?v2)) f1) (= (f16 (f17 ?v1) ?v2) f1))))))
(assert (forall ((?v0 S4) (?v1 S4) (?v2 S11)) (let ((?v_0 (f19 f20 ?v2))) (=> (= (f16 (f17 ?v0) ?v1) f1) (=> (= (f35 f36 ?v2) f1) (=> (= (f35 ?v2 f21) f1) (= (f35 (f18 ?v_0 ?v1) (f18 ?v_0 ?v0)) f1)))))))
(assert (forall ((?v0 S4) (?v1 S4) (?v2 S4)) (let ((?v_0 (f23 f24 ?v2))) (=> (= (f16 (f17 ?v0) ?v1) f1) (=> (= (f16 (f17 f29) ?v2) f1) (=> (= (f16 (f17 ?v2) f25) f1) (= (f16 (f17 (f22 ?v_0 ?v1)) (f22 ?v_0 ?v0)) f1)))))))
(assert (forall ((?v0 S11) (?v1 S4)) (=> (= (f35 f21 ?v0) f1) (=> (= (f16 (f17 f29) ?v1) f1) (= (f35 f21 (f18 (f19 f20 ?v0) ?v1)) f1)))))
(assert (forall ((?v0 S4) (?v1 S4)) (let ((?v_0 (f17 f25))) (=> (= (f16 ?v_0 ?v0) f1) (=> (= (f16 (f17 f29) ?v1) f1) (= (f16 ?v_0 (f22 (f23 f24 ?v0) ?v1)) f1))))))
(assert (forall ((?v0 S11) (?v1 S11) (?v2 S11) (?v3 S11)) (=> (= (f26 (f27 f28 ?v0) ?v1) (f26 (f27 f28 ?v2) ?v3)) (= (= (f35 ?v0 ?v1) f1) (= (f35 ?v2 ?v3) f1)))))
(assert (not (= f37 f12)))
(assert (not (= f36 f21)))
(assert (not (= f29 f25)))
(assert (not (= f12 f37)))
(assert (not (= f21 f36)))
(assert (not (= f25 f29)))
(assert (forall ((?v0 S11)) (= (f18 (f19 f20 ?v0) f25) ?v0)))
(assert (forall ((?v0 S3)) (= (f3 (f4 f11 ?v0) f25) ?v0)))
(assert (forall ((?v0 S4)) (= (f22 (f23 f24 ?v0) f25) ?v0)))
(assert (forall ((?v0 S11) (?v1 S11)) (= (= (f26 (f27 f28 ?v0) ?v1) f36) (= ?v0 ?v1))))
(assert (forall ((?v0 S3) (?v1 S3)) (= (= (f7 (f8 f10 ?v0) ?v1) f37) (= ?v0 ?v1))))
(assert (forall ((?v0 S11) (?v1 S11)) (= (= ?v0 ?v1) (= (f26 (f27 f28 ?v0) ?v1) f36))))
(assert (forall ((?v0 S3) (?v1 S3)) (= (= ?v0 ?v1) (= (f7 (f8 f10 ?v0) ?v1) f37))))
(assert (forall ((?v0 S11)) (= (f26 (f27 f28 ?v0) ?v0) f36)))
(assert (forall ((?v0 S3)) (= (f7 (f8 f10 ?v0) ?v0) f37)))
(assert (forall ((?v0 S11)) (= (f26 (f27 f28 ?v0) f36) ?v0)))
(assert (forall ((?v0 S3)) (= (f7 (f8 f10 ?v0) f37) ?v0)))
(assert (forall ((?v0 S11) (?v1 S4)) (=> (not (= ?v0 f36)) (not (= (f18 (f19 f20 ?v0) ?v1) f36)))))
(assert (forall ((?v0 S3) (?v1 S4)) (=> (not (= ?v0 f37)) (not (= (f3 (f4 f11 ?v0) ?v1) f37)))))
(assert (forall ((?v0 S3)) (= (f7 (f8 f9 ?v0) f37) f37)))
(assert (forall ((?v0 S3)) (= (f7 (f8 f9 f37) ?v0) f37)))
(assert (forall ((?v0 S3)) (= (f7 (f8 f9 f37) ?v0) f37)))
(assert (forall ((?v0 S4) (?v1 S4) (?v2 S11)) (let ((?v_0 (f19 f20 ?v2))) (=> (= (f16 (f17 ?v0) ?v1) f1) (=> (= (f35 f21 ?v2) f1) (= (f35 (f18 ?v_0 ?v0) (f18 ?v_0 ?v1)) f1))))))
(assert (forall ((?v0 S4) (?v1 S4) (?v2 S4)) (let ((?v_0 (f23 f24 ?v2))) (=> (= (f16 (f17 ?v0) ?v1) f1) (=> (= (f16 (f17 f25) ?v2) f1) (= (f16 (f17 (f22 ?v_0 ?v0)) (f22 ?v_0 ?v1)) f1))))))
(assert (forall ((?v0 S11) (?v1 S4) (?v2 S4)) (let ((?v_0 (f19 f20 ?v0))) (=> (= (f35 f21 ?v0) f1) (=> (= (f35 (f18 ?v_0 ?v1) (f18 ?v_0 ?v2)) f1) (= (f16 (f17 ?v1) ?v2) f1))))))
(assert (forall ((?v0 S4) (?v1 S4) (?v2 S4)) (let ((?v_0 (f23 f24 ?v0))) (=> (= (f16 (f17 f25) ?v0) f1) (=> (= (f16 (f17 (f22 ?v_0 ?v1)) (f22 ?v_0 ?v2)) f1) (= (f16 (f17 ?v1) ?v2) f1))))))
(assert (forall ((?v0 S11) (?v1 S4) (?v2 S4)) (let ((?v_0 (f19 f20 ?v0))) (=> (= (f35 f21 ?v0) f1) (= (= (f35 (f18 ?v_0 ?v1) (f18 ?v_0 ?v2)) f1) (= (f16 (f17 ?v1) ?v2) f1))))))
(assert (forall ((?v0 S4) (?v1 S4) (?v2 S4)) (let ((?v_0 (f23 f24 ?v0))) (=> (= (f16 (f17 f25) ?v0) f1) (= (= (f16 (f17 (f22 ?v_0 ?v1)) (f22 ?v_0 ?v2)) f1) (= (f16 (f17 ?v1) ?v2) f1))))))
(assert (forall ((?v0 S4)) (= (f3 (f4 f11 f37) ?v0) (ite (= ?v0 f29) f12 f37))))
(assert (forall ((?v0 S4)) (= (f18 (f19 f20 f36) ?v0) (ite (= ?v0 f29) f21 f36))))
(assert (forall ((?v0 S4)) (= (f22 (f23 f24 f29) ?v0) (ite (= ?v0 f29) f25 f29))))
(assert (forall ((?v0 S11) (?v1 S4) (?v2 S4)) (let ((?v_0 (f19 f20 ?v0))) (=> (= (f35 f21 ?v0) f1) (= (= (f18 ?v_0 ?v1) (f18 ?v_0 ?v2)) (= ?v1 ?v2))))))
(assert (forall ((?v0 S4) (?v1 S4) (?v2 S4)) (let ((?v_0 (f23 f24 ?v0))) (=> (= (f16 (f17 f25) ?v0) f1) (= (= (f22 ?v_0 ?v1) (f22 ?v_0 ?v2)) (= ?v1 ?v2))))))
(assert (forall ((?v0 S3) (?v1 S3)) (=> (not (= ?v0 f37)) (= (= (f7 (f8 f9 ?v1) ?v0) f12) (= ?v1 ?v0)))))
(assert (forall ((?v0 S3)) (=> (not (= ?v0 f37)) (= (f7 (f8 f9 ?v0) ?v0) f12))))
(assert (forall ((?v0 S3)) (= (f7 (f8 f9 ?v0) ?v0) (ite (= ?v0 f37) f37 f12))))
(assert (forall ((?v0 S3) (?v1 S3) (?v2 S4)) (=> (not (= ?v0 f37)) (= (f3 (f4 f11 (f7 (f8 f9 ?v1) ?v0)) ?v2) (f7 (f8 f9 (f3 (f4 f11 ?v1) ?v2)) (f3 (f4 f11 ?v0) ?v2))))))
(assert (forall ((?v0 S3)) (= (f3 (f4 f11 ?v0) f29) f12)))
(assert (forall ((?v0 S11)) (= (f18 (f19 f20 ?v0) f29) f21)))
(assert (forall ((?v0 S4)) (= (f22 (f23 f24 ?v0) f29) f25)))
(assert (forall ((?v0 S3) (?v1 S4)) (let ((?v_0 (f4 f11 ?v0))) (=> (not (= ?v0 f12)) (= (f30 (f31 f32 ?v_0) (f33 (f34 f29) ?v1)) (f7 (f8 f9 (f7 (f8 f10 (f3 ?v_0 ?v1)) f12)) (f7 (f8 f10 ?v0) f12)))))))
(assert (forall ((?v0 S4)) (=> (= (f16 (f17 ?v0) f29) f1) false)))
(assert (forall ((?v0 S4) (?v1 S9)) (= (exists ((?v2 S4)) (and (= (f16 (f17 ?v2) ?v0) f1) (= (f16 ?v1 ?v2) f1))) (exists ((?v2 S4)) (and (= (f38 ?v2 (f33 (f34 f29) ?v0)) f1) (= (f16 ?v1 ?v2) f1))))))
(assert (forall ((?v0 S4) (?v1 S9)) (= (forall ((?v2 S4)) (=> (= (f16 (f17 ?v2) ?v0) f1) (= (f16 ?v1 ?v2) f1))) (forall ((?v2 S4)) (=> (= (f38 ?v2 (f33 (f34 f29) ?v0)) f1) (= (f16 ?v1 ?v2) f1))))))
(assert (forall ((?v0 S3)) (= (f3 (f4 f11 ?v0) f29) f12)))
(assert (forall ((?v0 S11)) (= (f18 (f19 f20 ?v0) f29) f21)))
(assert (forall ((?v0 S4)) (= (f22 (f23 f24 ?v0) f29) f25)))
(assert (forall ((?v0 S4)) (not (= (f3 f13 ?v0) f37))))
(assert (forall ((?v0 S4) (?v1 S4)) (=> (= (f22 (f23 f39 ?v0) ?v1) f29) (=> (= (f22 (f23 f39 ?v1) ?v0) f29) (= ?v0 ?v1)))))
(assert (forall ((?v0 S4)) (= (f22 (f23 f39 ?v0) ?v0) f29)))
(assert (forall ((?v0 S4)) (= (f22 (f23 f39 ?v0) f29) ?v0)))
(check-sat)
(exit)
